# Solution for model p01_budget_0p010
# Objective value = 1.0000000000062320e-02
Risk 1.0000000000062320e-02
0 0
1 0
3 0.001
4 30.001
5 3.0002000000000002e+01
6 40.002
7 4.5877055957173077e+01
9 9.3095064520108053e+01
c(0,1)_Rl 0.001
c(0,1)_Ru 0
c(0,3)_Rl 0
c(0,3)_Ru 0
c(3,4)_Rl 0
c(3,4)_Ru 0
c(4,5)_Rl 0
c(4,5)_Ru 0
c(3,5)_Rl 0
c(3,5)_Ru 0
c(1,2)_l 0
c(1,2)_u 4.5876055957173079e+01
c(2,7)_Fl 0
c(2,7)_Fu 5.1305119199274718e-03
c(1,7)_Rl 0
c(1,7)_Ru 0
c(5,6)_Rl 0
c(5,6)_Ru 0
c(3,6)_Rl 0
c(3,6)_Ru 0
c(7,8)_l 0
c(7,8)_u 4.7217008562934971e+01
c(1,8)_Fl 0
c(1,8)_Fu 2.4347440400674242e-03
c(0,9)_Rl 0
c(0,9)_Ru 5.7094464520108055e+01
c(8,9)_Fl 0
c(8,9)_Fu 2.4347440400674242e-03
c(6,9)_Rl 0
c(6,9)_Ru 0
Cost 5.7095464520108052e+01
